************************************************************************
file with basedata            : md333_.bas
initial value random generator: 117551300
************************************************************************
projects                      :  1
jobs (incl. supersource/sink ):  22
horizon                       :  163
RESOURCES
  - renewable                 :  2   R
  - nonrenewable              :  2   N
  - doubly constrained        :  0   D
************************************************************************
PROJECT INFORMATION:
pronr.  #jobs rel.date duedate tardcost  MPM-Time
    1     20      0       33       18       33
************************************************************************
PRECEDENCE RELATIONS:
jobnr.    #modes  #successors   successors
   1        1          3           2   3   4
   2        3          3           7   8  11
   3        3          3          12  13  16
   4        3          3           5   8  21
   5        3          3           6  11  13
   6        3          2           9  15
   7        3          3           9  15  21
   8        3          2          14  15
   9        3          3          10  14  20
  10        3          2          12  16
  11        3          1          19
  12        3          1          19
  13        3          2          18  20
  14        3          1          17
  15        3          2          16  20
  16        3          1          17
  17        3          1          18
  18        3          1          19
  19        3          1          22
  20        3          1          22
  21        3          1          22
  22        1          0        
************************************************************************
REQUESTS/DURATIONS:
jobnr. mode duration  R 1  R 2  N 1  N 2
------------------------------------------------------------------------
  1      1     0       0    0    0    0
  2      1     1       5   10    0    7
         2     6       4   10   10    0
         3    10       2   10    6    0
  3      1     6       7   10    7    0
         2     7       7    9    7    0
         3     8       5    9    6    0
  4      1     4       9    7    7    0
         2     6       7    4    0    8
         3     8       6    1    0    6
  5      1     1       7    5    8    0
         2     2       7    4    7    0
         3    10       5    3    0   10
  6      1     6       9    8    0    7
         2     9       8    5    6    0
         3    10       8    1    0    4
  7      1     2       4   10    0    7
         2     2       4   10    5    0
         3    10       2    9    4    0
  8      1     3       8    4    5    0
         2     5       8    4    4    0
         3     6       7    3    3    0
  9      1     1       5    4    0    3
         2    10       4    4    6    0
         3    10       5    4    5    0
 10      1     2       4    5    0    6
         2     5       3    5    9    0
         3     7       2    5    8    0
 11      1     1       8    8    0    7
         2     5       6    6    0    6
         3     8       3    5    0    6
 12      1     1       6    7    0    4
         2     1       6    7    3    0
         3     2       6    6    0    4
 13      1     1       5    7    7    0
         2     5       5    7    0    5
         3     8       5    7    0    4
 14      1     5       3    9    2    0
         2     9       3    3    0    7
         3     9       2    3    2    0
 15      1     1      10    8    0    8
         2     2       7    5    7    0
         3     5       4    2    0    8
 16      1     5       7    3    0    6
         2    10       2    3    0    2
         3    10       3    1    5    0
 17      1     7       5    7    5    0
         2     7       5    8    0    6
         3     8       5    7    0    4
 18      1     3       5    7    0    7
         2     9       3    7    0    7
         3     9       5    6    0    7
 19      1     4       8    3    0    2
         2     6       6    2    0    2
         3     9       5    2    0    1
 20      1     8       9    7    0    5
         2     9       8    7    2    0
         3     9       9    7    0    4
 21      1     1       7    7    9    0
         2     2       7    7    0    1
         3     7       6    4    8    0
 22      1     0       0    0    0    0
************************************************************************
RESOURCEAVAILABILITIES:
  R 1  R 2  N 1  N 2
   14   15   56   60
************************************************************************
